Probability/r1.probability.lp.sol
# Objective value = 0
p0_0_0_0 0
p1_0_0_0 0
p0_0_0_1 0
p1_0_0_1 0
p0_0_1_0 0
p1_0_1_0 0
p0_0_1_1 0
p1_0_1_1 0
p0_0_2_0 0
p1_0_2_0 0
p0_0_2_1 0
p1_0_2_1 0
p0_0_3_0 0
p1_0_3_0 0
p0_0_3_1 0
p1_0_3_1 0
x0_0 0
x0_1 0
x0_2 0
x0_3 0
x0_4 0
x0_5 0
x0_6 0
x0_7 0
x0_8 1
x0_9 1
x0_10 1
x0_11 1
x0_12 1
x0_13 1
x0_14 1
x0_15 1
x0_16 0
x0_17 0
x0_18 0
x0_19 0
x0_20 0
x0_21 0
x0_22 0
x0_23 0
x0_24 1
x0_25 1
x0_26 1
x0_27 1
x0_28 1
x0_29 1
x0_30 1
x0_31 1
x0_32 0
x0_33 0
x0_34 0
x0_35 0
x0_36 0
x0_37 0
x0_38 0
x0_39 0
x0_40 1
x0_41 1
x0_42 1
x0_43 1
x0_44 1
x0_45 1
x0_46 1
x0_47 1
x0_48 0
x0_49 0
x0_50 0
x0_51 0
x0_52 0
x0_53 0
x0_54 0
x0_55 0
x0_56 1
x0_57 1
x0_58 1
x0_59 1
x0_60 1
x0_61 1
x0_62 1
x0_63 1
A0_0_0 0
y0_0 0
y0_1 0
y0_2 0
y0_3 0
A0_0_1 0
y0_4 0
y0_5 0
y0_6 0
y0_7 0
x0_67 1
d0_0_1 1
x0_66 1
d0_0_2 1
x0_65 1
d0_0_3 1
x0_64 1
d0_0_4 1
x0_71 1
d0_0_5 1
x0_70 1
d0_0_6 1
x0_69 1
d0_0_7 1
x0_68 1
d0_0_8 1
A0_1_0 0
y0_16 0
y0_17 0
y0_18 0
y0_19 0
A0_1_1 0
y0_20 0
y0_21 0
y0_22 0
y0_23 0
x0_75 1
d0_1_1 1
x0_74 1
d0_1_2 1
x0_73 1
d0_1_3 1
x0_72 1
d0_1_4 1
x0_79 1
d0_1_5 1
x0_78 1
d0_1_6 1
x0_77 1
d0_1_7 1
x0_76 1
d0_1_8 1
A0_2_0 0
y0_32 0
y0_33 0
y0_34 0
y0_35 0
A0_2_1 0
y0_36 0
y0_37 0
y0_38 0
y0_39 0
x0_83 1
d0_2_1 1
x0_82 1
d0_2_2 1
x0_81 1
d0_2_3 1
x0_80 1
d0_2_4 1
x0_87 1
d0_2_5 1
x0_86 1
d0_2_6 1
x0_85 1
d0_2_7 1
x0_84 1
d0_2_8 1
A0_3_0 0
y0_48 0
y0_49 0
y0_50 0
y0_51 0
A0_3_1 0
y0_52 0
y0_53 0
y0_54 0
y0_55 0
x0_91 1
d0_3_1 1
x0_90 1
d0_3_2 1
x0_89 1
d0_3_3 1
x0_88 1
d0_3_4 1
x0_95 1
d0_3_5 1
x0_94 1
d0_3_6 1
x0_93 1
d0_3_7 1
x0_92 1
d0_3_8 1
x1_0 1
x1_1 1
x1_2 1
x1_3 1
x1_4 1
x1_5 1
x1_6 1
x1_7 1
x1_8 0
x1_9 0
x1_10 0
x1_11 0
x1_12 0
x1_13 0
x1_14 0
x1_15 0
x1_16 1
x1_17 1
x1_18 1
x1_19 1
x1_20 1
x1_21 1
x1_22 1
x1_23 1
x1_24 0
x1_25 0
x1_26 0
x1_27 0
x1_28 0
x1_29 0
x1_30 0
x1_31 0
x1_32 1
x1_33 1
x1_34 1
x1_35 1
x1_36 1
x1_37 1
x1_38 1
x1_39 1
x1_40 0
x1_41 0
x1_42 0
x1_43 0
x1_44 0
x1_45 0
x1_46 0
x1_47 0
x1_48 1
x1_49 1
x1_50 1
x1_51 1
x1_52 1
x1_53 1
x1_54 1
x1_55 1
x1_56 0
x1_57 0
x1_58 0
x1_59 0
x1_60 0
x1_61 0
x1_62 0
x1_63 0
