Logs/r1.probability.lp.log

Gurobi 10.0.3 (win64) logging started Sat Nov  9 16:28:08 2024

Set parameter LogFile to value "r1.probability.lp.log"
Gurobi Optimizer version 10.0.3 build v10.0.3rc0 (win64)

CPU model: 12th Gen Intel(R) Core(TM) i5-1240P, instruction set [SSE2|AVX|AVX2]
Thread count: 12 physical cores, 16 logical processors, using up to 2 threads

Optimize a model with 329 rows, 248 columns and 2272 nonzeros
Model fingerprint: 0x81e8a129
Variable types: 0 continuous, 248 integer (248 binary)
Coefficient statistics:
  Matrix range     [1e+00, 1e+01]
  Objective range  [1e+00, 2e+00]
  Bounds range     [1e+00, 1e+00]
  RHS range        [1e+00, 1e+00]
Presolve removed 300 rows and 237 columns
Presolve time: 0.00s
Presolved: 29 rows, 11 columns, 244 nonzeros
Variable types: 0 continuous, 11 integer (11 binary)
Found heuristic solution: objective 0.0000000

Explored 0 nodes (0 simplex iterations) in 0.01 seconds (0.01 work units)
Thread count was 2 (of 16 available processors)

Solution count 1: 0 

Optimal solution found (tolerance 1.00e-04)
Best objective 0.000000000000e+00, best bound 0.000000000000e+00, gap 0.0000%
